param MAXWORK := 32;

param:
TNAME: TWORK :=
'DEV.p1.m' 1600
'DEV.p2.m' 1680
'DEV.p3.m' 1720
'DEV.p4.m' 1760
'DEV.p5.m' 800
'DEV.p6.m' 800
'DEV.p7.m' 800
'DEV.p8.m' 800
'DEV.p9.m' 800
'DEV.p10.m' 800
'DEV.p11.m' 800
'DEV.p12.m' 800
'DEV.p13.m' 800
'DEV.p14.m' 800
'DEV.p15.m' 800
'DEV.p16.m' 800
'DEV.p17.m' 800
'DEV.p18.m' 800
'DEV.p19.m' 800
'DEV.p20.m' 800
'DEV.p21.m' 800
;

set TSCOPE['DEV.p1.m'] :=
1 2 3 4 5 8 9 11 12 15 16 17 18 19 22 23 24 25 26 29 30 31 32 33 36 37 38 39 40 43 44 45 46 47 50 51 52 53 54 57 58 59 60 61 64 65 66 67 68 71
72 73 74 75 78 79 80 81 82 85 86 87 88 89 92 93 94 95 96 99 100 101 102 103 106 107 108
;

set TSCOPE['DEV.p2.m'] :=
2 3 4 5 8 9 11 12 15 16 17 18 19 22 23 24 25 26 29 30 31 32 33 36 37 38 39 40 43 44 45 46 47 50 51 52 53 54 57 58 59 60 61 64 65 66 67 68 71 72
73 74 75 78 79 80 81 82 85 86 87 88 89 92 93 94 95 96 99 100 101 102 103 106 107 108
;

set TSCOPE['DEV.p3.m'] :=
3 4 5 8 9 11 12 15 16 17 18 19 22 23 24 25 26 29 30 31 32 33 36 37 38 39 40 43 44 45 46 47 50 51 52 53 54 57 58 59 60 61 64 65 66 67 68 71 72 73
74 75 78 79 80 81 82 85 86 87 88 89 92 93 94 95 96 99 100 101 102 103 106 107 108
;

set TSCOPE['DEV.p4.m'] :=
4 5 8 9 11 12 15 16 17 18 19 22 23 24 25 26 29 30 31 32 33 36 37 38 39 40 43 44 45 46 47 50 51 52 53 54 57 58 59 60 61 64 65 66 67 68 71 72 73 74
75 78 79 80 81 82 85 86 87 88 89 92 93 94 95 96 99 100 101 102 103 106 107 108
;

set TSCOPE['DEV.p5.m'] :=
1 2 3 4 5 8 9 11 12 15 16 17 18 19 22 23 24 25 26 29 30 31 32 33 36 37 38 39 40 43 44 45 46 47 50 51 52 53 54 57 58 59 60 61 64 65 66 67 68 71
72 73 74 75
;

set TSCOPE['DEV.p6.m'] :=
1 2 3 4 5 8 9 11 12 15 16 17 18 19 22 23 24 25 26 29 30 31 32 33 36 37 38 39 40 43 44 45 46 47 50 51 52 53 54 57 58 59 60 61 64 65 66 67 68 71
72 73 74 75 78 79 80 81 82 85 86 87 88 89 92 93 94 95 96 99 100 101 102 103 106 107 108
;

set TSCOPE['DEV.p7.m'] :=
1 2 3 4 5 8 9 11 12 15 16 17 18 19 22 23 24 25 26 29 30 31 32 33 36 37 38 39 40 43 44 45 46 47 50 51 52 53 54 57 58 59 60 61 64 65 66 67 68 71
72 73 74 75
;

set TSCOPE['DEV.p8.m'] :=
1 2 3 4 5 8 9 11 12 15 16 17 18 19 22 23 24 25 26 29 30 31 32 33 36 37 38 39 40 43 44 45 46 47 50 51 52 53 54 57 58 59 60 61 64 65 66 67 68 71
72 73 74 75 78 79 80 81 82 85 86 87 88 89 92 93 94 95 96 99 100 101 102 103 106 107 108
;

set TSCOPE['DEV.p9.m'] :=
1 2 3 4 5 8 9 11 12 15 16 17 18 19 22 23 24 25 26 29 30 31 32 33 36 37 38 39 40 43 44 45 46 47 50 51 52 53 54 57 58 59 60 61 64 65 66 67 68 71
72 73 74 75
;

set TSCOPE['DEV.p10.m'] :=
1 2 3 4 5 8 9 11 12 15 16 17 18 19 22 23 24 25 26 29 30 31 32 33 36 37 38 39 40 43 44 45 46 47 50 51 52 53 54 57 58 59 60 61 64 65 66 67 68 71
72 73 74 75 78 79 80 81 82 85 86 87 88 89 92 93 94 95 96 99 100 101 102 103 106 107 108
;

set TSCOPE['DEV.p11.m'] :=
1 2 3 4 5 8 9 11 12 15 16 17 18 19 22 23 24 25 26 29 30 31 32 33 36 37 38 39 40 43 44 45 46 47 50 51 52 53 54 57 58 59 60 61 64 65 66 67 68 71
72 73 74 75
;

set TSCOPE['DEV.p12.m'] :=
1 2 3 4 5 8 9 11 12 15 16 17 18 19 22 23 24 25 26 29 30 31 32 33 36 37 38 39 40 43 44 45 46 47 50 51 52 53 54 57 58 59 60 61 64 65 66 67 68 71
72 73 74 75 78 79 80 81 82 85 86 87 88 89 92 93 94 95 96 99 100 101 102 103 106 107 108
;

set TSCOPE['DEV.p13.m'] :=
1 2 3 4 5 8 9 11 12 15 16 17 18 19 22 23 24 25 26 29 30 31 32 33 36 37 38 39 40 43 44 45 46 47 50 51 52 53 54 57 58 59 60 61 64 65 66 67 68 71
72 73 74 75
;

set TSCOPE['DEV.p14.m'] :=
1 2 3 4 5 8 9 11 12 15 16 17 18 19 22 23 24 25 26 29 30 31 32 33 36 37 38 39 40 43 44 45 46 47 50 51 52 53 54 57 58 59 60 61 64 65 66 67 68 71
72 73 74 75 78 79 80 81 82 85 86 87 88 89 92 93 94 95 96 99 100 101 102 103 106 107 108
;

set TSCOPE['DEV.p15.m'] :=
1 2 3 4 5 8 9 11 12 15 16 17 18 19 22 23 24 25 26 29 30 31 32 33 36 37 38 39 40 43 44 45 46 47 50 51 52 53 54 57 58 59 60 61 64 65 66 67 68 71
72 73 74 75 78 79 80 81 82 85 86 87 88 89 92 93 94 95 96 99 100 101 102 103 106 107 108 109 110 113 114 115 116 117 120 121 122 123 124 127 128 129 130 131 134 135 136 137 138
;

set TSCOPE['DEV.p16.m'] :=
1 2 3 4 5 8 9 11 12 15 16 17 18 19 22 23 24 25 26 29 30 31 32 33 36 37 38 39 40 43 44 45 46 47 50 51 52 53 54 57 58 59 60 61 64 65 66 67 68 71
72 73 74 75
;

set TSCOPE['DEV.p17.m'] :=
1 2 3 4 5 8 9 11 12 15 16 17 18 19 22 23 24 25 26 29 30 31 32 33 36 37 38 39 40 43 44 45 46 47 50 51 52 53 54 57 58 59 60 61 64 65 66 67 68 71
72 73 74 75 78 79 80 81 82 85 86 87 88 89 92 93 94 95 96 99 100 101 102 103 106 107 108
;

set TSCOPE['DEV.p18.m'] :=
1 2 3 4 5 8 9 11 12 15 16 17 18 19 22 23 24 25 26 29 30 31 32 33 36 37 38 39 40 43 44 45 46 47 50 51 52 53 54 57 58 59 60 61 64 65 66 67 68 71
72 73 74 75 78 79 80 81 82 85 86 87 88 89 92 93 94 95 96 99 100 101 102 103 106 107 108 109 110 113 114 115 116 117 120 121 122 123 124 127 128 129 130 131 134 135 136 137 138
;

set TSCOPE['DEV.p19.m'] :=
1 2 3 4 5 8 9 11 12 15 16 17 18 19 22 23 24 25 26 29 30 31 32 33 36 37 38 39 40 43 44 45 46 47 50 51 52 53 54 57 58 59 60 61 64 65 66 67 68 71
72 73 74 75
;

set TSCOPE['DEV.p20.m'] :=
1 2 3 4 5 8 9 11 12 15 16 17 18 19 22 23 24 25 26 29 30 31 32 33 36 37 38 39 40 43 44 45 46 47 50 51 52 53 54 57 58 59 60 61 64 65 66 67 68 71
72 73 74 75 78 79 80 81 82 85 86 87 88 89 92 93 94 95 96 99 100 101 102 103 106 107 108
;

set TSCOPE['DEV.p21.m'] :=
1 2 3 4 5 8 9 11 12 15 16 17 18 19 22 23 24 25 26 29 30 31 32 33 36 37 38 39 40 43 44 45 46 47 50 51 52 53 54 57 58 59 60 61 64 65 66 67 68 71
72 73 74 75 78 79 80 81 82 85 86 87 88 89 92 93 94 95 96 99 100 101 102 103 106 107 108 109 110 113 114 115 116 117 120 121 122 123 124 127 128 129 130 131 134 135 136 137 138
;

set ENAME :=
'DEV.Alojzy'
'DEV.Barłomiej'
'DEV.Cezary'
'DEV.Dariusz'
'DEV.Eugenius'
'DEV.Franciszek'
'DEV.Gustaw'
'DEV.Hubert'
'DEV.Ignacy'
'DEV.Jarosław'
'DEV.Paweł'
;

set ASSIGN :=
('DEV.Alojzy',*)
'DEV.p1.m'
('DEV.Barłomiej',*)
'DEV.p2.m'
('DEV.Cezary',*)
'DEV.p3.m'
('DEV.Dariusz',*)
'DEV.p4.m'
('DEV.Eugenius',*)
'DEV.p5.m'
'DEV.p6.m'
('DEV.Franciszek',*)
'DEV.p7.m'
'DEV.p8.m'
('DEV.Gustaw',*)
'DEV.p10.m'
'DEV.p9.m'
('DEV.Hubert',*)
'DEV.p11.m'
'DEV.p12.m'
('DEV.Ignacy',*)
'DEV.p13.m'
'DEV.p14.m'
'DEV.p15.m'
'DEV.p18.m'
('DEV.Jarosław',*)
'DEV.p16.m'
'DEV.p17.m'
'DEV.p18.m'
('DEV.Paweł',*)
'DEV.p18.m'
'DEV.p19.m'
'DEV.p20.m'
'DEV.p21.m'
;

param:
XBID: XBL XBU :=
['DEV.Barłomiej','DEV.p2.m',*]
2 20 24
3 20 24
4 20 24
5 20 24
8 20 24
9 20 24
11 20 24
12 20 24
['DEV.Cezary','DEV.p3.m',*]
3 16 20
4 16 20
5 16 20
['DEV.Cezary','DEV.p3.m',*]
8 8 12
9 8 12
11 8 12
12 8 12
;

param:
UBID: UBL UBU :=
['DEV.Franciszek',*]
1 2 2
2 2 2
3 2 2
4 2 2
5 2 2
8 2 2
9 2 2
11 2 2
12 2 2
['DEV.Hubert',*]
1 1 1
2 1 1
3 1 1
4 1 1
5 1 1
8 1 1
9 1 1
11 1 1
12 1 1
['DEV.Jarosław',*]
1 2 2
2 2 2
3 2 2
4 2 2
5 2 2
8 2 2
9 2 2
11 2 2
12 2 2
['DEV.Paweł',*]
1 1 1
2 1 1
3 1 1
4 1 1
5 1 1
8 1 1
9 1 1
11 1 1
12 1 1
;

param:
EBID: EBN EBS EBE EBL EBU :=
1 'DEV.Alojzy' 1 48 0 20
2 'DEV.Alojzy' 49 76 0 28
;

param:
PNAME: PERS PERE :=
'25.Jan' 1 31
'25.Feb' 32 60
'25.Mar' 61 91
'25.Apr' 92 120
'25.May' 121 154
;

param:
EXPPER: PBL PBU :=
'DEV.Paweł' '25.Jan' 0 800
'DEV.Paweł' '25.Feb' 0 800
'DEV.Paweł' '25.Mar' 0 800
'DEV.Paweł' '25.Apr' 0 800
'DEV.Paweł' '25.May' 0 800
'DEV.Alojzy' '25.Jan' 0 800
'DEV.Alojzy' '25.Feb' 0 800
'DEV.Alojzy' '25.Mar' 0 800
'DEV.Alojzy' '25.Apr' 0 800
'DEV.Alojzy' '25.May' 0 800
'DEV.Barłomiej' '25.Jan' 0 800
'DEV.Cezary' '25.Jan' 0 800
'DEV.Dariusz' '25.Jan' 0 800
'DEV.Eugenius' '25.Jan' 0 800
'DEV.Franciszek' '25.Jan' 0 800
'DEV.Gustaw' '25.Jan' 0 800
'DEV.Hubert' '25.Jan' 0 800
'DEV.Ignacy' '25.Jan' 0 800
'DEV.Jarosław' '25.Jan' 0 800
;
